c File: flat50_3_0.col
c
c SOURCE: Joseph Culberson (joe@cs.ualberta.ca)
c DESCRIPTION: Quasi-random coloring problem
c              generated with flatness = 0
c                             probability = 0.139
c                             known coloring = 3
c                             random seed = 1790
c              Creation Date:  Tue Jun  9 12:17:58 1998
c Maximum degree = 8 Minimum degree = 1
c p edge 50 115
c cnf created by edge2cnf
p cnf 150 545
-1 -2 0
-1 -3 0
-2 -3 0
1 2 3 0
-4 -5 0
-4 -6 0
-5 -6 0
4 5 6 0
-7 -8 0
-7 -9 0
-8 -9 0
7 8 9 0
-10 -11 0
-10 -12 0
-11 -12 0
10 11 12 0
-13 -14 0
-13 -15 0
-14 -15 0
13 14 15 0
-16 -17 0
-16 -18 0
-17 -18 0
16 17 18 0
-19 -20 0
-19 -21 0
-20 -21 0
19 20 21 0
-22 -23 0
-22 -24 0
-23 -24 0
22 23 24 0
-25 -26 0
-25 -27 0
-26 -27 0
25 26 27 0
-28 -29 0
-28 -30 0
-29 -30 0
28 29 30 0
-31 -32 0
-31 -33 0
-32 -33 0
31 32 33 0
-34 -35 0
-34 -36 0
-35 -36 0
34 35 36 0
-37 -38 0
-37 -39 0
-38 -39 0
37 38 39 0
-40 -41 0
-40 -42 0
-41 -42 0
40 41 42 0
-43 -44 0
-43 -45 0
-44 -45 0
43 44 45 0
-46 -47 0
-46 -48 0
-47 -48 0
46 47 48 0
-49 -50 0
-49 -51 0
-50 -51 0
49 50 51 0
-52 -53 0
-52 -54 0
-53 -54 0
52 53 54 0
-55 -56 0
-55 -57 0
-56 -57 0
55 56 57 0
-58 -59 0
-58 -60 0
-59 -60 0
58 59 60 0
-61 -62 0
-61 -63 0
-62 -63 0
61 62 63 0
-64 -65 0
-64 -66 0
-65 -66 0
64 65 66 0
-67 -68 0
-67 -69 0
-68 -69 0
67 68 69 0
-70 -71 0
-70 -72 0
-71 -72 0
70 71 72 0
-73 -74 0
-73 -75 0
-74 -75 0
73 74 75 0
-76 -77 0
-76 -78 0
-77 -78 0
76 77 78 0
-79 -80 0
-79 -81 0
-80 -81 0
79 80 81 0
-82 -83 0
-82 -84 0
-83 -84 0
82 83 84 0
-85 -86 0
-85 -87 0
-86 -87 0
85 86 87 0
-88 -89 0
-88 -90 0
-89 -90 0
88 89 90 0
-91 -92 0
-91 -93 0
-92 -93 0
91 92 93 0
-94 -95 0
-94 -96 0
-95 -96 0
94 95 96 0
-97 -98 0
-97 -99 0
-98 -99 0
97 98 99 0
-100 -101 0
-100 -102 0
-101 -102 0
100 101 102 0
-103 -104 0
-103 -105 0
-104 -105 0
103 104 105 0
-106 -107 0
-106 -108 0
-107 -108 0
106 107 108 0
-109 -110 0
-109 -111 0
-110 -111 0
109 110 111 0
-112 -113 0
-112 -114 0
-113 -114 0
112 113 114 0
-115 -116 0
-115 -117 0
-116 -117 0
115 116 117 0
-118 -119 0
-118 -120 0
-119 -120 0
118 119 120 0
-121 -122 0
-121 -123 0
-122 -123 0
121 122 123 0
-124 -125 0
-124 -126 0
-125 -126 0
124 125 126 0
-127 -128 0
-127 -129 0
-128 -129 0
127 128 129 0
-130 -131 0
-130 -132 0
-131 -132 0
130 131 132 0
-133 -134 0
-133 -135 0
-134 -135 0
133 134 135 0
-136 -137 0
-136 -138 0
-137 -138 0
136 137 138 0
-139 -140 0
-139 -141 0
-140 -141 0
139 140 141 0
-142 -143 0
-142 -144 0
-143 -144 0
142 143 144 0
-145 -146 0
-145 -147 0
-146 -147 0
145 146 147 0
-148 -149 0
-148 -150 0
-149 -150 0
148 149 150 0
-58 -1 0
-59 -2 0
-60 -3 0
-91 -1 0
-92 -2 0
-93 -3 0
-124 -1 0
-125 -2 0
-126 -3 0
-130 -1 0
-131 -2 0
-132 -3 0
-52 -4 0
-53 -5 0
-54 -6 0
-103 -4 0
-104 -5 0
-105 -6 0
-130 -4 0
-131 -5 0
-132 -6 0
-55 -7 0
-56 -8 0
-57 -9 0
-67 -7 0
-68 -8 0
-69 -9 0
-73 -7 0
-74 -8 0
-75 -9 0
-76 -7 0
-77 -8 0
-78 -9 0
-124 -7 0
-125 -8 0
-126 -9 0
-139 -7 0
-140 -8 0
-141 -9 0
-73 -10 0
-74 -11 0
-75 -12 0
-85 -10 0
-86 -11 0
-87 -12 0
-106 -10 0
-107 -11 0
-108 -12 0
-121 -10 0
-122 -11 0
-123 -12 0
-136 -10 0
-137 -11 0
-138 -12 0
-139 -10 0
-140 -11 0
-141 -12 0
-55 -13 0
-56 -14 0
-57 -15 0
-73 -13 0
-74 -14 0
-75 -15 0
-85 -13 0
-86 -14 0
-87 -15 0
-100 -13 0
-101 -14 0
-102 -15 0
-109 -13 0
-110 -14 0
-111 -15 0
-118 -13 0
-119 -14 0
-120 -15 0
-136 -13 0
-137 -14 0
-138 -15 0
-118 -16 0
-119 -17 0
-120 -18 0
-70 -19 0
-71 -20 0
-72 -21 0
-73 -19 0
-74 -20 0
-75 -21 0
-82 -19 0
-83 -20 0
-84 -21 0
-88 -19 0
-89 -20 0
-90 -21 0
-127 -19 0
-128 -20 0
-129 -21 0
-133 -19 0
-134 -20 0
-135 -21 0
-139 -19 0
-140 -20 0
-141 -21 0
-64 -22 0
-65 -23 0
-66 -24 0
-106 -22 0
-107 -23 0
-108 -24 0
-115 -22 0
-116 -23 0
-117 -24 0
-64 -25 0
-65 -26 0
-66 -27 0
-82 -25 0
-83 -26 0
-84 -27 0
-85 -25 0
-86 -26 0
-87 -27 0
-88 -25 0
-89 -26 0
-90 -27 0
-127 -25 0
-128 -26 0
-129 -27 0
-148 -25 0
-149 -26 0
-150 -27 0
-58 -28 0
-59 -29 0
-60 -30 0
-61 -28 0
-62 -29 0
-63 -30 0
-85 -28 0
-86 -29 0
-87 -30 0
-106 -28 0
-107 -29 0
-108 -30 0
-133 -28 0
-134 -29 0
-135 -30 0
-145 -28 0
-146 -29 0
-147 -30 0
-64 -31 0
-65 -32 0
-66 -33 0
-70 -31 0
-71 -32 0
-72 -33 0
-70 -34 0
-71 -35 0
-72 -36 0
-109 -34 0
-110 -35 0
-111 -36 0
-94 -37 0
-95 -38 0
-96 -39 0
-97 -37 0
-98 -38 0
-99 -39 0
-100 -37 0
-101 -38 0
-102 -39 0
-103 -37 0
-104 -38 0
-105 -39 0
-124 -37 0
-125 -38 0
-126 -39 0
-148 -37 0
-149 -38 0
-150 -39 0
-91 -40 0
-92 -41 0
-93 -42 0
-103 -40 0
-104 -41 0
-105 -42 0
-130 -40 0
-131 -41 0
-132 -42 0
-136 -40 0
-137 -41 0
-138 -42 0
-139 -40 0
-140 -41 0
-141 -42 0
-61 -43 0
-62 -44 0
-63 -45 0
-76 -43 0
-77 -44 0
-78 -45 0
-124 -43 0
-125 -44 0
-126 -45 0
-76 -46 0
-77 -47 0
-78 -48 0
-97 -46 0
-98 -47 0
-99 -48 0
-100 -46 0
-101 -47 0
-102 -48 0
-106 -46 0
-107 -47 0
-108 -48 0
-142 -46 0
-143 -47 0
-144 -48 0
-55 -49 0
-56 -50 0
-57 -51 0
-58 -49 0
-59 -50 0
-60 -51 0
-64 -49 0
-65 -50 0
-66 -51 0
-142 -49 0
-143 -50 0
-144 -51 0
-148 -49 0
-149 -50 0
-150 -51 0
-115 -52 0
-116 -53 0
-117 -54 0
-109 -55 0
-110 -56 0
-111 -57 0
-115 -55 0
-116 -56 0
-117 -57 0
-148 -55 0
-149 -56 0
-150 -57 0
-106 -58 0
-107 -59 0
-108 -60 0
-121 -58 0
-122 -59 0
-123 -60 0
-139 -58 0
-140 -59 0
-141 -60 0
-142 -58 0
-143 -59 0
-144 -60 0
-106 -61 0
-107 -62 0
-108 -63 0
-109 -61 0
-110 -62 0
-111 -63 0
-103 -64 0
-104 -65 0
-105 -66 0
-112 -64 0
-113 -65 0
-114 -66 0
-127 -64 0
-128 -65 0
-129 -66 0
-136 -67 0
-137 -68 0
-138 -69 0
-133 -70 0
-134 -71 0
-135 -72 0
-136 -70 0
-137 -71 0
-138 -72 0
-142 -70 0
-143 -71 0
-144 -72 0
-106 -73 0
-107 -74 0
-108 -75 0
-121 -73 0
-122 -74 0
-123 -75 0
-112 -76 0
-113 -77 0
-114 -78 0
-115 -76 0
-116 -77 0
-117 -78 0
-142 -76 0
-143 -77 0
-144 -78 0
-118 -79 0
-119 -80 0
-120 -81 0
-139 -79 0
-140 -80 0
-141 -81 0
-136 -82 0
-137 -83 0
-138 -84 0
-142 -82 0
-143 -83 0
-144 -84 0
-145 -85 0
-146 -86 0
-147 -87 0
-106 -88 0
-107 -89 0
-108 -90 0
-112 -88 0
-113 -89 0
-114 -90 0
-127 -91 0
-128 -92 0
-129 -93 0
-148 -91 0
-149 -92 0
-150 -93 0
-133 -94 0
-134 -95 0
-135 -96 0
-136 -94 0
-137 -95 0
-138 -96 0
-139 -97 0
-140 -98 0
-141 -99 0
-145 -97 0
-146 -98 0
-147 -99 0
-148 -97 0
-149 -98 0
-150 -99 0
-112 -100 0
-113 -101 0
-114 -102 0
-130 -100 0
-131 -101 0
-132 -102 0
